(set-option :produce-models true)
(set-logic QF_LRA)
(set-info :notes | Strip-packing problem.|)
(declare-fun x0 () Real)
(declare-fun y0 () Real)
(declare-fun x1 () Real)
(declare-fun y1 () Real)
(declare-fun x2 () Real)
(declare-fun y2 () Real)
(declare-fun x3 () Real)
(declare-fun y3 () Real)
(declare-fun x4 () Real)
(declare-fun y4 () Real)
(declare-fun x5 () Real)
(declare-fun y5 () Real)
(declare-fun x6 () Real)
(declare-fun y6 () Real)
(declare-fun x7 () Real)
(declare-fun y7 () Real)
(declare-fun x8 () Real)
(declare-fun y8 () Real)
(declare-fun x9 () Real)
(declare-fun y9 () Real)
(declare-fun x10 () Real)
(declare-fun y10 () Real)
(declare-fun x11 () Real)
(declare-fun y11 () Real)
(declare-fun z () Real)
(declare-fun c () Real)
(assert (and (= c z) (and (>= x0 0) 
(and (>= y0 0) 
(and (>= x1 0) 
(and (>= y1 0) 
(and (>= x2 0) 
(and (>= y2 0) 
(and (>= x3 0) 
(and (>= y3 0) 
(and (>= x4 0) 
(and (>= y4 0) 
(and (>= x5 0) 
(and (>= y5 0) 
(and (>= x6 0) 
(and (>= y6 0) 
(and (>= x7 0) 
(and (>= y7 0) 
(and (>= x8 0) 
(and (>= y8 0) 
(and (>= x9 0) 
(and (>= y9 0) 
(and (>= x10 0) 
(and (>= y10 0) 
(and (>= x11 0) 
(and (>= y11 0) 
(and (>= z 0) 
(and (>= c 0) 
(and (<= (+ x0 0.9871354282) z) 
(and (<= 0.915191519 y0) 
(and (<= y0 1.73205080757) 
(and (<= x0 (- 3.7911859088 0.9871354282)) 
(and (>= x0 0) 
(and (<= (+ x1 0.0644443939) z) 
(and (<= 0.871677332 y1) 
(and (<= y1 1.73205080757) 
(and (<= x1 (- 3.7911859088 0.0644443939)) 
(and (>= x1 0) 
(and (<= (+ x2 0.5060261858) z) 
(and (<= 0.860499525 y2) 
(and (<= y2 1.73205080757) 
(and (<= x2 (- 3.7911859088 0.5060261858)) 
(and (>= x2 0) 
(and (<= (+ x3 0.6129766898) z) 
(and (<= 0.8460014971 y3) 
(and (<= y3 1.73205080757) 
(and (<= x3 (- 3.7911859088 0.6129766898)) 
(and (>= x3 0) 
(and (<= (+ x4 0.7233597278) z) 
(and (<= 0.8061984625 y4) 
(and (<= y4 1.73205080757) 
(and (<= x4 (- 3.7911859088 0.7233597278)) 
(and (>= x4 0) 
(and (<= (+ x5 0.2398385217) z) 
(and (<= 0.4861833977 y5) 
(and (<= y5 1.73205080757) 
(and (<= x5 (- 3.7911859088 0.2398385217)) 
(and (>= x5 0) 
(and (<= (+ x6 0.4319898805) z) 
(and (<= 0.4708314195 y6) 
(and (<= y6 1.73205080757) 
(and (<= x6 (- 3.7911859088 0.4319898805)) 
(and (>= x6 0) 
(and (<= (+ x7 0.0028978159) z) 
(and (<= 0.4607789384 y7) 
(and (<= y7 1.73205080757) 
(and (<= x7 (- 3.7911859088 0.0028978159)) 
(and (>= x7 0) 
(and (<= (+ x8 0.3791016923) z) 
(and (<= 0.3992628575 y8) 
(and (<= y8 1.73205080757) 
(and (<= x8 (- 3.7911859088 0.3791016923)) 
(and (>= x8 0) 
(and (<= (+ x9 0.805212724) z) 
(and (<= 0.3513803399 y9) 
(and (<= y9 1.73205080757) 
(and (<= x9 (- 3.7911859088 0.805212724)) 
(and (>= x9 0) 
(and (<= (+ x10 0.6399960944) z) 
(and (<= 0.2563482836 y10) 
(and (<= y10 1.73205080757) 
(and (<= x10 (- 3.7911859088 0.6399960944)) 
(and (>= x10 0) 
(and (<= (+ x11 0.8153904871) z) 
(and (<= 0.0451110502 y11) 
(and (<= y11 1.73205080757) 
(and (<= x11 (- 3.7911859088 0.8153904871)) 
(and (>= x11 0) 
(and (<= c 3.7911859088) 
(and (or (<= (+ x0 0.9871354282) x1) (or (<= (+ x1 0.0644443939) x0) (or (>= (- y0 0.915191519) y1) (or (>= (- y1 0.871677332) y0))))) 
(and (or (<= (+ x0 0.9871354282) x2) (or (<= (+ x2 0.5060261858) x0) (or (>= (- y0 0.915191519) y2) (or (>= (- y2 0.860499525) y0))))) 
(and (or (<= (+ x0 0.9871354282) x3) (or (<= (+ x3 0.6129766898) x0) (or (>= (- y0 0.915191519) y3) (or (>= (- y3 0.8460014971) y0))))) 
(and (or (<= (+ x0 0.9871354282) x4) (or (<= (+ x4 0.7233597278) x0) (or (>= (- y0 0.915191519) y4) (or (>= (- y4 0.8061984625) y0))))) 
(and (or (<= (+ x0 0.9871354282) x5) (or (<= (+ x5 0.2398385217) x0) (or (>= (- y0 0.915191519) y5) (or (>= (- y5 0.4861833977) y0))))) 
(and (or (<= (+ x0 0.9871354282) x6) (or (<= (+ x6 0.4319898805) x0) (or (>= (- y0 0.915191519) y6) (or (>= (- y6 0.4708314195) y0))))) 
(and (or (<= (+ x0 0.9871354282) x7) (or (<= (+ x7 0.0028978159) x0) (or (>= (- y0 0.915191519) y7) (or (>= (- y7 0.4607789384) y0))))) 
(and (or (<= (+ x0 0.9871354282) x8) (or (<= (+ x8 0.3791016923) x0) (or (>= (- y0 0.915191519) y8) (or (>= (- y8 0.3992628575) y0))))) 
(and (or (<= (+ x0 0.9871354282) x9) (or (<= (+ x9 0.805212724) x0) (or (>= (- y0 0.915191519) y9) (or (>= (- y9 0.3513803399) y0))))) 
(and (or (<= (+ x0 0.9871354282) x10) (or (<= (+ x10 0.6399960944) x0) (or (>= (- y0 0.915191519) y10) (or (>= (- y10 0.2563482836) y0))))) 
(and (or (<= (+ x0 0.9871354282) x11) (or (<= (+ x11 0.8153904871) x0) (or (>= (- y0 0.915191519) y11) (or (>= (- y11 0.0451110502) y0))))) 
(and (or (<= (+ x1 0.0644443939) x2) (or (<= (+ x2 0.5060261858) x1) (or (>= (- y1 0.871677332) y2) (or (>= (- y2 0.860499525) y1))))) 
(and (or (<= (+ x1 0.0644443939) x3) (or (<= (+ x3 0.6129766898) x1) (or (>= (- y1 0.871677332) y3) (or (>= (- y3 0.8460014971) y1))))) 
(and (or (<= (+ x1 0.0644443939) x4) (or (<= (+ x4 0.7233597278) x1) (or (>= (- y1 0.871677332) y4) (or (>= (- y4 0.8061984625) y1))))) 
(and (or (<= (+ x1 0.0644443939) x5) (or (<= (+ x5 0.2398385217) x1) (or (>= (- y1 0.871677332) y5) (or (>= (- y5 0.4861833977) y1))))) 
(and (or (<= (+ x1 0.0644443939) x6) (or (<= (+ x6 0.4319898805) x1) (or (>= (- y1 0.871677332) y6) (or (>= (- y6 0.4708314195) y1))))) 
(and (or (<= (+ x1 0.0644443939) x7) (or (<= (+ x7 0.0028978159) x1) (or (>= (- y1 0.871677332) y7) (or (>= (- y7 0.4607789384) y1))))) 
(and (or (<= (+ x1 0.0644443939) x8) (or (<= (+ x8 0.3791016923) x1) (or (>= (- y1 0.871677332) y8) (or (>= (- y8 0.3992628575) y1))))) 
(and (or (<= (+ x1 0.0644443939) x9) (or (<= (+ x9 0.805212724) x1) (or (>= (- y1 0.871677332) y9) (or (>= (- y9 0.3513803399) y1))))) 
(and (or (<= (+ x1 0.0644443939) x10) (or (<= (+ x10 0.6399960944) x1) (or (>= (- y1 0.871677332) y10) (or (>= (- y10 0.2563482836) y1))))) 
(and (or (<= (+ x1 0.0644443939) x11) (or (<= (+ x11 0.8153904871) x1) (or (>= (- y1 0.871677332) y11) (or (>= (- y11 0.0451110502) y1))))) 
(and (or (<= (+ x2 0.5060261858) x3) (or (<= (+ x3 0.6129766898) x2) (or (>= (- y2 0.860499525) y3) (or (>= (- y3 0.8460014971) y2))))) 
(and (or (<= (+ x2 0.5060261858) x4) (or (<= (+ x4 0.7233597278) x2) (or (>= (- y2 0.860499525) y4) (or (>= (- y4 0.8061984625) y2))))) 
(and (or (<= (+ x2 0.5060261858) x5) (or (<= (+ x5 0.2398385217) x2) (or (>= (- y2 0.860499525) y5) (or (>= (- y5 0.4861833977) y2))))) 
(and (or (<= (+ x2 0.5060261858) x6) (or (<= (+ x6 0.4319898805) x2) (or (>= (- y2 0.860499525) y6) (or (>= (- y6 0.4708314195) y2))))) 
(and (or (<= (+ x2 0.5060261858) x7) (or (<= (+ x7 0.0028978159) x2) (or (>= (- y2 0.860499525) y7) (or (>= (- y7 0.4607789384) y2))))) 
(and (or (<= (+ x2 0.5060261858) x8) (or (<= (+ x8 0.3791016923) x2) (or (>= (- y2 0.860499525) y8) (or (>= (- y8 0.3992628575) y2))))) 
(and (or (<= (+ x2 0.5060261858) x9) (or (<= (+ x9 0.805212724) x2) (or (>= (- y2 0.860499525) y9) (or (>= (- y9 0.3513803399) y2))))) 
(and (or (<= (+ x2 0.5060261858) x10) (or (<= (+ x10 0.6399960944) x2) (or (>= (- y2 0.860499525) y10) (or (>= (- y10 0.2563482836) y2))))) 
(and (or (<= (+ x2 0.5060261858) x11) (or (<= (+ x11 0.8153904871) x2) (or (>= (- y2 0.860499525) y11) (or (>= (- y11 0.0451110502) y2))))) 
(and (or (<= (+ x3 0.6129766898) x4) (or (<= (+ x4 0.7233597278) x3) (or (>= (- y3 0.8460014971) y4) (or (>= (- y4 0.8061984625) y3))))) 
(and (or (<= (+ x3 0.6129766898) x5) (or (<= (+ x5 0.2398385217) x3) (or (>= (- y3 0.8460014971) y5) (or (>= (- y5 0.4861833977) y3))))) 
(and (or (<= (+ x3 0.6129766898) x6) (or (<= (+ x6 0.4319898805) x3) (or (>= (- y3 0.8460014971) y6) (or (>= (- y6 0.4708314195) y3))))) 
(and (or (<= (+ x3 0.6129766898) x7) (or (<= (+ x7 0.0028978159) x3) (or (>= (- y3 0.8460014971) y7) (or (>= (- y7 0.4607789384) y3))))) 
(and (or (<= (+ x3 0.6129766898) x8) (or (<= (+ x8 0.3791016923) x3) (or (>= (- y3 0.8460014971) y8) (or (>= (- y8 0.3992628575) y3))))) 
(and (or (<= (+ x3 0.6129766898) x9) (or (<= (+ x9 0.805212724) x3) (or (>= (- y3 0.8460014971) y9) (or (>= (- y9 0.3513803399) y3))))) 
(and (or (<= (+ x3 0.6129766898) x10) (or (<= (+ x10 0.6399960944) x3) (or (>= (- y3 0.8460014971) y10) (or (>= (- y10 0.2563482836) y3))))) 
(and (or (<= (+ x3 0.6129766898) x11) (or (<= (+ x11 0.8153904871) x3) (or (>= (- y3 0.8460014971) y11) (or (>= (- y11 0.0451110502) y3))))) 
(and (or (<= (+ x4 0.7233597278) x5) (or (<= (+ x5 0.2398385217) x4) (or (>= (- y4 0.8061984625) y5) (or (>= (- y5 0.4861833977) y4))))) 
(and (or (<= (+ x4 0.7233597278) x6) (or (<= (+ x6 0.4319898805) x4) (or (>= (- y4 0.8061984625) y6) (or (>= (- y6 0.4708314195) y4))))) 
(and (or (<= (+ x4 0.7233597278) x7) (or (<= (+ x7 0.0028978159) x4) (or (>= (- y4 0.8061984625) y7) (or (>= (- y7 0.4607789384) y4))))) 
(and (or (<= (+ x4 0.7233597278) x8) (or (<= (+ x8 0.3791016923) x4) (or (>= (- y4 0.8061984625) y8) (or (>= (- y8 0.3992628575) y4))))) 
(and (or (<= (+ x4 0.7233597278) x9) (or (<= (+ x9 0.805212724) x4) (or (>= (- y4 0.8061984625) y9) (or (>= (- y9 0.3513803399) y4))))) 
(and (or (<= (+ x4 0.7233597278) x10) (or (<= (+ x10 0.6399960944) x4) (or (>= (- y4 0.8061984625) y10) (or (>= (- y10 0.2563482836) y4))))) 
(and (or (<= (+ x4 0.7233597278) x11) (or (<= (+ x11 0.8153904871) x4) (or (>= (- y4 0.8061984625) y11) (or (>= (- y11 0.0451110502) y4))))) 
(and (or (<= (+ x5 0.2398385217) x6) (or (<= (+ x6 0.4319898805) x5) (or (>= (- y5 0.4861833977) y6) (or (>= (- y6 0.4708314195) y5))))) 
(and (or (<= (+ x5 0.2398385217) x7) (or (<= (+ x7 0.0028978159) x5) (or (>= (- y5 0.4861833977) y7) (or (>= (- y7 0.4607789384) y5))))) 
(and (or (<= (+ x5 0.2398385217) x8) (or (<= (+ x8 0.3791016923) x5) (or (>= (- y5 0.4861833977) y8) (or (>= (- y8 0.3992628575) y5))))) 
(and (or (<= (+ x5 0.2398385217) x9) (or (<= (+ x9 0.805212724) x5) (or (>= (- y5 0.4861833977) y9) (or (>= (- y9 0.3513803399) y5))))) 
(and (or (<= (+ x5 0.2398385217) x10) (or (<= (+ x10 0.6399960944) x5) (or (>= (- y5 0.4861833977) y10) (or (>= (- y10 0.2563482836) y5))))) 
(and (or (<= (+ x5 0.2398385217) x11) (or (<= (+ x11 0.8153904871) x5) (or (>= (- y5 0.4861833977) y11) (or (>= (- y11 0.0451110502) y5))))) 
(and (or (<= (+ x6 0.4319898805) x7) (or (<= (+ x7 0.0028978159) x6) (or (>= (- y6 0.4708314195) y7) (or (>= (- y7 0.4607789384) y6))))) 
(and (or (<= (+ x6 0.4319898805) x8) (or (<= (+ x8 0.3791016923) x6) (or (>= (- y6 0.4708314195) y8) (or (>= (- y8 0.3992628575) y6))))) 
(and (or (<= (+ x6 0.4319898805) x9) (or (<= (+ x9 0.805212724) x6) (or (>= (- y6 0.4708314195) y9) (or (>= (- y9 0.3513803399) y6))))) 
(and (or (<= (+ x6 0.4319898805) x10) (or (<= (+ x10 0.6399960944) x6) (or (>= (- y6 0.4708314195) y10) (or (>= (- y10 0.2563482836) y6))))) 
(and (or (<= (+ x6 0.4319898805) x11) (or (<= (+ x11 0.8153904871) x6) (or (>= (- y6 0.4708314195) y11) (or (>= (- y11 0.0451110502) y6))))) 
(and (or (<= (+ x7 0.0028978159) x8) (or (<= (+ x8 0.3791016923) x7) (or (>= (- y7 0.4607789384) y8) (or (>= (- y8 0.3992628575) y7))))) 
(and (or (<= (+ x7 0.0028978159) x9) (or (<= (+ x9 0.805212724) x7) (or (>= (- y7 0.4607789384) y9) (or (>= (- y9 0.3513803399) y7))))) 
(and (or (<= (+ x7 0.0028978159) x10) (or (<= (+ x10 0.6399960944) x7) (or (>= (- y7 0.4607789384) y10) (or (>= (- y10 0.2563482836) y7))))) 
(and (or (<= (+ x7 0.0028978159) x11) (or (<= (+ x11 0.8153904871) x7) (or (>= (- y7 0.4607789384) y11) (or (>= (- y11 0.0451110502) y7))))) 
(and (or (<= (+ x8 0.3791016923) x9) (or (<= (+ x9 0.805212724) x8) (or (>= (- y8 0.3992628575) y9) (or (>= (- y9 0.3513803399) y8))))) 
(and (or (<= (+ x8 0.3791016923) x10) (or (<= (+ x10 0.6399960944) x8) (or (>= (- y8 0.3992628575) y10) (or (>= (- y10 0.2563482836) y8))))) 
(and (or (<= (+ x8 0.3791016923) x11) (or (<= (+ x11 0.8153904871) x8) (or (>= (- y8 0.3992628575) y11) (or (>= (- y11 0.0451110502) y8))))) 
(and (or (<= (+ x9 0.805212724) x10) (or (<= (+ x10 0.6399960944) x9) (or (>= (- y9 0.3513803399) y10) (or (>= (- y10 0.2563482836) y9))))) 
(and (or (<= (+ x9 0.805212724) x11) (or (<= (+ x11 0.8153904871) x9) (or (>= (- y9 0.3513803399) y11) (or (>= (- y11 0.0451110502) y9))))) 
(and (or (<= (+ x10 0.6399960944) x11) (or (<= (+ x11 0.8153904871) x10) (or (>= (- y10 0.2563482836) y11) (or (>= (- y11 0.0451110502) y10))))) )))))))))))))))))))))))))))))))))))))))))))))))))))))))))))))))))))))))))))))))))))))))))))))))))))))))))))))))))))))))))))))))))))))))))))))))))))))))))))
(minimize c)
(check-sat)
(get-objectives)
(exit)
